109,1369,1370,1404,1405,1406,1440,2593,2594,2629,2630,2664,2665,2666,2667,2700,2701,2702,2703,2736,2737,3888,3889,3890,3891,3925,3926,3960,3961,3962,3963,3996,3997,3998,3999,4032,4033,4034,5184,5185,5186,5187,5220,5221,5222,5223,5256,5257,5258,5259,5292,5293,5294,5295,5328,5329,6480,6481,6482,6483,6516,6517,6518,6519,6552,6553,6554,6555,6589,6590,7777,7778,7812,7813,7814,7815,7849,7850;4035,4069,4070,4105,4106,5330,5331,6625,6626;180,1441,1476,1477,1512,1513,2772,2773,2774,2808,2809;110,144,145,146,147,181,182,183,216,217,218,219,252,253,254,255,1407,1442,1443,1478,1479,1514,1515,1549,1550,2738,2739,2775,2810,2811;289,290